NAME : morphed23-5-1
COMMENT : Generated using the function morphInstances from the R-package netgen (Bossek,2015) - Number of clusters: 5 Alpha: 0.5
TYPE : TSP
DIMENSION : 23
EDGE_WEIGHT_TYPE : EUC_2D
NODE_COORD_SECTION
1 18.2863470392 16.6292577992
2 32.0394590686 33.4813048774
3 44.3120018302 43.876798616
4 92.0606690781 4.1026131699
5 15.3753684283 31.7875976713
6 84.1726882791 88.5718087829
7 95.051251487 27.2424947596
8 57.5905351784 52.6283340899
9 59.9853871355 65.1015055515
10 7.1282742046 38.4184542487
11 14.8138650372 21.3872548481
12 22.1158603186 65.8279977847
13 65.621951114 69.1931372294
14 45.8391676887 80.3486949668
15 79.8198359981 9.2939552018
16 51.9706811518 70.2439220296
17 63.1320840159 47.0917187813
18 89.1678237828 85.7515718946
19 44.3696996096 65.4405706301
20 79.2167353822 82.374543495
21 95.1702154132 35.342817833
22 23.525472604 50.2766198549
23 68.3390222876 88.1319040241
EOF
